c User generated cnf file
p cnf 12 62
12 1 -9 0 
6 -9 7 0 
2 -11 11 0 
3 -6 2 0 
1 -7 11 0 
4 -10 9 0 
3 -5 12 0 
7 -9 3 0 
2 -6 11 0 
3 -1 6 0 
2 9 -10 0 
2 -11 7 0 
6 -12 10 0 
8 2 -12 0 
11 6 -6 0 
10 1 -11 0 
1 -6 9 0 
9 -2 9 0 
11 7 -1 0 
7 -4 10 0 
9 12 -9 0 
7 -12 11 0 
8 -12 6 0 
3 2 -6 0 
11 -1 6 0 
6 -10 11 0 
8 -4 2 0 
3 -8 8 0 
3 -12 8 0 
9 11 -4 0 
8 -9 12 0 
5 7 -4 0 
8 9 -1 0 
7 10 -11 0 
11 -10 5 0 
5 4 -10 0 
2 1 -9 0 
3 -6 10 0 
2 5 -7 0 
12 -8 10 0 
3 -2 9 0 
8 11 -8 0 
5 11 -7 0 
2 -6 6 0 
10 -10 12 0 
11 9 -10 0 
7 11 -5 0 
1 -11 10 0 
2 -7 11 0 
11 4 -9 0 
11 1 -11 0 
6 1 -4 0 
10 2 -12 0 
4 -5 4 0 
6 -8 10 0 
1 -5 12 0 
2 2 -4 0 
9 4 -4 0 
3 6 -1 0 
11 -11 5 0 
8 -1 9 0 
3 -10 3 0 
